model/powertrain/powertrain_0_0_0.smt2.output
Solution:
Kd_0_0 : [ ENTIRE ] = [0, 0]
Kd_0_t : [ ENTIRE ] = [0, 0]
Ki_0_0 : [ ENTIRE ] = [0, 0]
Ki_0_t : [ ENTIRE ] = [0, 0]
Kp_0_0 : [ ENTIRE ] = [0.1873141244829035, 0.1873141244829035]
Kp_0_t : [ ENTIRE ] = [0.1873141244829035, 0.1873141244829035]
counter_0_0 : [ ENTIRE ] = [0, 4.940656458412465e-324]
counter_0_t : [ ENTIRE ] = [0.09999999999999999, 0.1]
e_0_0 : [ ENTIRE ] = [-0.02028421727911223, -0.0194934487082552]
e_0_t : [ ENTIRE ] = [-0.02028421727911223, -0.0194934487082552]
e_der_0_0 : [ ENTIRE ] = [0.02643799151316627, 0.02699696103409975]
e_der_0_t : [ ENTIRE ] = [0.02643799151316627, 0.02699696103409975]
e_int_0_0 : [ ENTIRE ] = [-0.2331498415743199, -0.2323250012874996]
e_int_0_t : [ ENTIRE ] = [-0.2331498415743199, -0.2323250012874996]
lambda_0_0 : [ ENTIRE ] = [14.67971578272089, 14.68050655129174]
lambda_0_t : [ ENTIRE ] = [14.6833159732161, 14.68394246406178]
lambda_prev_0_0 : [ ENTIRE ] = [14.67971578272089, 14.68050655129174]
lambda_prev_0_t : [ ENTIRE ] = [14.67971578272089, 14.68050655129174]
p_0_0 : [ ENTIRE ] = [0.9992349081424833, 0.9992349081424889]
p_0_t : [ ENTIRE ] = [0.9992349081613811, 0.9992349081613853]
pe_0_0 : [ ENTIRE ] = [0.8413754827712823, 0.8413755707556998]
pe_0_t : [ ENTIRE ] = [0.8403155793425097, 0.8403156522487069]
tau_0_0 : [ ENTIRE ] = [1.799992609746072, 1.800000000000002]
tau_0_t : [ ENTIRE ] = [1.899992609746072, 1.900000000000002]
the_0_0 : [ ENTIRE ] = [36.41693501110078, 36.41693501113379]
the_0_t : [ ENTIRE ] = [36.41693527699382, 36.41693527700703]
the_in_0_0 : [ ENTIRE ] = [36.41693543173777, 36.41693543173778]
the_in_0_t : [ ENTIRE ] = [36.41693543173777, 36.41693543173778]
time : [ ENTIRE ] = [0.09999999999999995, 0.1]
time_mock_0_0 : [ ENTIRE ] = [0, 0]
time_mock_0_t : [ ENTIRE ] = [0.09999999999999995, 0.1]
u_0_0 : [ ENTIRE ] = [-0.003799520400457891, -0.00365139827793921]
u_0_t : [ ENTIRE ] = [-0.003799520400457891, -0.00365139827793921]
w_0_0 : [ ENTIRE ] = [104.4252335931449, 104.4252335931449]
w_0_t : [ ENTIRE ] = [104.4252335931449, 104.4252335931449]
delta-sat with delta = 0.00100000000000000
